70
1 0 16
2 0 10
2 1 2
3 0 9
3 1 10
3 2 12
4 0 14
4 1 16
4 2 10
4 3 12
5 0 5
5 1 9
5 2 10
5 3 15
5 4 6
6 0 16
6 1 19
6 2 3
6 3 6
6 4 13
6 5 6
7 0 4
7 1 8
7 2 17
7 3 17
7 4 2
7 5 3
7 6 10
8 0 10
8 1 5
8 2 18
8 3 6
8 4 2
8 5 18
8 6 4
8 7 19
9 0 14
9 1 15
9 2 5
9 3 4
9 4 5
9 5 18
9 6 14
9 7 5
9 8 16
10 0 15
10 1 12
10 2 11
10 3 20
10 4 14
10 5 18
10 6 9
10 7 1
10 8 9
10 9 6
11 0 15
11 1 11
11 2 10
11 3 1
11 4 10
11 5 18
11 6 4
11 7 3
11 8 7
11 9 6
11 10 5
12 0 16
12 1 9
12 2 13
12 3 15
12 4 12
12 5 2
12 6 13
12 7 15
12 8 13
12 9 11
12 10 3
12 11 9
13 0 17
13 1 6
13 2 9
13 3 9
13 4 17
13 5 16
13 6 18
13 7 18
13 8 7
13 9 7
13 10 5
13 11 9
13 12 2
14 0 19
14 1 12
14 2 5
14 3 10
14 4 11
14 5 18
14 6 5
14 7 19
14 8 20
14 9 17
14 10 5
14 11 20
14 12 7
14 13 15
15 0 5
15 1 18
15 2 6
15 3 7
15 4 1
15 5 17
15 6 10
15 7 13
15 8 8
15 9 8
15 10 3
15 11 4
15 12 4
15 13 2
15 14 20
16 0 6
16 1 10
16 2 2
16 3 18
16 4 17
16 5 17
16 6 2
16 7 17
16 8 4
16 9 16
16 10 5
16 11 11
16 12 2
16 13 2
16 14 6
16 15 5
17 0 7
17 1 17
17 2 12
17 3 16
17 4 14
17 5 10
17 6 20
17 7 20
17 8 7
17 9 18
17 10 20
17 11 19
17 12 16
17 13 11
17 14 5
17 15 12
17 16 2
18 0 15
18 1 19
18 2 18
18 3 10
18 4 14
18 5 12
18 6 12
18 7 8
18 8 13
18 9 7
18 10 18
18 11 19
18 12 20
18 13 19
18 14 13
18 15 10
18 16 4
18 17 12
19 0 13
19 1 5
19 2 7
19 3 20
19 4 5
19 5 19
19 6 19
19 7 16
19 8 7
19 9 11
19 10 10
19 11 20
19 12 6
19 13 8
19 14 20
19 15 1
19 16 13
19 17 10
19 18 12
20 0 11
20 1 13
20 2 9
20 3 10
20 4 7
20 5 11
20 6 20
20 7 13
20 8 14
20 9 13
20 10 16
20 11 20
20 12 5
20 13 13
20 14 7
20 15 18
20 16 20
20 17 17
20 18 4
20 19 15
21 0 20
21 1 4
21 2 11
21 3 19
21 4 10
21 5 15
21 6 13
21 7 15
21 8 15
21 9 20
21 10 4
21 11 10
21 12 11
21 13 18
21 14 15
21 15 19
21 16 20
21 17 13
21 18 12
21 19 8
21 20 18
22 0 15
22 1 15
22 2 3
22 3 8
22 4 15
22 5 1
22 6 18
22 7 4
22 8 13
22 9 5
22 10 16
22 11 9
22 12 18
22 13 15
22 14 2
22 15 4
22 16 12
22 17 13
22 18 16
22 19 17
22 20 18
22 21 17
23 0 4
23 1 3
23 2 14
23 3 9
23 4 3
23 5 8
23 6 19
23 7 17
23 8 9
23 9 18
23 10 9
23 11 6
23 12 6
23 13 19
23 14 19
23 15 7
23 16 12
23 17 1
23 18 15
23 19 8
23 20 16
23 21 17
23 22 9
24 0 5
24 1 5
24 2 3
24 3 15
24 4 11
24 5 11
24 6 16
24 7 7
24 8 19
24 9 10
24 10 15
24 11 6
24 12 19
24 13 19
24 14 5
24 15 12
24 16 7
24 17 9
24 18 9
24 19 7
24 20 3
24 21 1
24 22 9
24 23 20
25 0 17
25 1 10
25 2 18
25 3 4
25 4 4
25 5 10
25 6 3
25 7 4
25 8 12
25 9 15
25 10 13
25 11 1
25 12 14
25 13 11
25 14 7
25 15 2
25 16 12
25 17 18
25 18 7
25 19 20
25 20 4
25 21 15
25 22 4
25 23 2
25 24 8
26 0 15
26 1 4
26 2 3
26 3 5
26 4 14
26 5 2
26 6 15
26 7 17
26 8 6
26 9 3
26 10 20
26 11 1
26 12 11
26 13 3
26 14 16
26 15 10
26 16 20
26 17 10
26 18 7
26 19 15
26 20 11
26 21 15
26 22 15
26 23 2
26 24 12
26 25 14
27 0 1
27 1 3
27 2 6
27 3 8
27 4 5
27 5 11
27 6 18
27 7 18
27 8 5
27 9 2
27 10 5
27 11 10
27 12 12
27 13 1
27 14 19
27 15 18
27 16 1
27 17 12
27 18 12
27 19 14
27 20 2
27 21 19
27 22 2
27 23 8
27 24 6
27 25 4
27 26 8
28 0 6
28 1 12
28 2 2
28 3 9
28 4 19
28 5 8
28 6 3
28 7 15
28 8 17
28 9 20
28 10 17
28 11 18
28 12 2
28 13 18
28 14 6
28 15 5
28 16 18
28 17 13
28 18 17
28 19 8
28 20 3
28 21 20
28 22 1
28 23 20
28 24 3
28 25 3
28 26 13
28 27 3
29 0 10
29 1 4
29 2 14
29 3 2
29 4 11
29 5 12
29 6 5
29 7 14
29 8 19
29 9 17
29 10 8
29 11 9
29 12 14
29 13 7
29 14 7
29 15 20
29 16 6
29 17 3
29 18 14
29 19 12
29 20 15
29 21 12
29 22 13
29 23 11
29 24 8
29 25 1
29 26 13
29 27 16
29 28 20
30 0 19
30 1 12
30 2 13
30 3 10
30 4 2
30 5 11
30 6 9
30 7 20
30 8 2
30 9 8
30 10 3
30 11 12
30 12 14
30 13 6
30 14 17
30 15 18
30 16 7
30 17 11
30 18 9
30 19 9
30 20 10
30 21 1
30 22 16
30 23 18
30 24 11
30 25 8
30 26 3
30 27 16
30 28 4
30 29 20
31 0 13
31 1 17
31 2 10
31 3 7
31 4 20
31 5 8
31 6 12
31 7 2
31 8 1
31 9 6
31 10 18
31 11 4
31 12 15
31 13 5
31 14 17
31 15 17
31 16 12
31 17 6
31 18 18
31 19 14
31 20 15
31 21 7
31 22 20
31 23 9
31 24 9
31 25 2
31 26 20
31 27 20
31 28 14
31 29 17
31 30 15
32 0 13
32 1 16
32 2 5
32 3 12
32 4 11
32 5 17
32 6 16
32 7 14
32 8 2
32 9 6
32 10 14
32 11 4
32 12 6
32 13 16
32 14 7
32 15 13
32 16 2
32 17 2
32 18 7
32 19 14
32 20 6
32 21 2
32 22 3
32 23 2
32 24 9
32 25 6
32 26 9
32 27 13
32 28 10
32 29 9
32 30 12
32 31 9
33 0 7
33 1 16
33 2 17
33 3 17
33 4 2
33 5 7
33 6 3
33 7 15
33 8 2
33 9 4
33 10 10
33 11 6
33 12 18
33 13 14
33 14 8
33 15 13
33 16 11
33 17 17
33 18 5
33 19 3
33 20 8
33 21 16
33 22 12
33 23 13
33 24 14
33 25 8
33 26 15
33 27 10
33 28 17
33 29 4
33 30 2
33 31 6
33 32 7
34 0 11
34 1 16
34 2 8
34 3 17
34 4 19
34 5 6
34 6 10
34 7 20
34 8 7
34 9 8
34 10 15
34 11 3
34 12 16
34 13 18
34 14 17
34 15 11
34 16 19
34 17 11
34 18 5
34 19 3
34 20 13
34 21 10
34 22 11
34 23 7
34 24 13
34 25 1
34 26 12
34 27 19
34 28 3
34 29 19
34 30 12
34 31 3
34 32 3
34 33 7
35 0 1
35 1 15
35 2 6
35 3 19
35 4 13
35 5 5
35 6 15
35 7 18
35 8 20
35 9 11
35 10 10
35 11 6
35 12 4
35 13 13
35 14 4
35 15 9
35 16 11
35 17 1
35 18 7
35 19 3
35 20 1
35 21 7
35 22 16
35 23 14
35 24 18
35 25 9
35 26 19
35 27 9
35 28 12
35 29 11
35 30 18
35 31 1
35 32 2
35 33 10
35 34 4
36 0 19
36 1 4
36 2 8
36 3 15
36 4 17
36 5 13
36 6 4
36 7 19
36 8 13
36 9 18
36 10 3
36 11 2
36 12 6
36 13 20
36 14 10
36 15 1
36 16 17
36 17 5
36 18 18
36 19 11
36 20 3
36 21 6
36 22 14
36 23 13
36 24 3
36 25 14
36 26 7
36 27 1
36 28 7
36 29 3
36 30 17
36 31 8
36 32 13
36 33 20
36 34 9
36 35 19
37 0 12
37 1 18
37 2 9
37 3 3
37 4 19
37 5 19
37 6 5
37 7 9
37 8 17
37 9 17
37 10 2
37 11 8
37 12 20
37 13 5
37 14 18
37 15 5
37 16 4
37 17 13
37 18 11
37 19 7
37 20 7
37 21 4
37 22 9
37 23 17
37 24 14
37 25 2
37 26 16
37 27 13
37 28 11
37 29 18
37 30 5
37 31 5
37 32 13
37 33 18
37 34 4
37 35 13
37 36 10
38 0 6
38 1 17
38 2 11
38 3 16
38 4 13
38 5 2
38 6 8
38 7 18
38 8 20
38 9 6
38 10 17
38 11 8
38 12 4
38 13 9
38 14 7
38 15 6
38 16 3
38 17 12
38 18 8
38 19 7
38 20 20
38 21 8
38 22 11
38 23 9
38 24 9
38 25 20
38 26 9
38 27 17
38 28 8
38 29 4
38 30 14
38 31 8
38 32 13
38 33 10
38 34 2
38 35 4
38 36 20
38 37 15
39 0 9
39 1 16
39 2 5
39 3 10
39 4 17
39 5 6
39 6 3
39 7 4
39 8 19
39 9 14
39 10 7
39 11 9
39 12 11
39 13 9
39 14 2
39 15 17
39 16 8
39 17 20
39 18 20
39 19 8
39 20 8
39 21 2
39 22 14
39 23 14
39 24 17
39 25 18
39 26 9
39 27 3
39 28 16
39 29 14
39 30 13
39 31 18
39 32 20
39 33 11
39 34 7
39 35 18
39 36 4
39 37 6
39 38 20
40 0 20
40 1 6
40 2 6
40 3 5
40 4 5
40 5 16
40 6 13
40 7 11
40 8 1
40 9 2
40 10 1
40 11 7
40 12 10
40 13 18
40 14 7
40 15 13
40 16 11
40 17 3
40 18 17
40 19 13
40 20 9
40 21 13
40 22 3
40 23 4
40 24 2
40 25 14
40 26 18
40 27 5
40 28 20
40 29 4
40 30 9
40 31 14
40 32 1
40 33 9
40 34 17
40 35 18
40 36 3
40 37 3
40 38 7
40 39 9
41 0 20
41 1 5
41 2 3
41 3 1
41 4 12
41 5 8
41 6 8
41 7 7
41 8 18
41 9 17
41 10 1
41 11 15
41 12 2
41 13 10
41 14 19
41 15 4
41 16 5
41 17 4
41 18 18
41 19 6
41 20 4
41 21 8
41 22 9
41 23 13
41 24 19
41 25 5
41 26 19
41 27 15
41 28 11
41 29 5
41 30 4
41 31 14
41 32 1
41 33 16
41 34 14
41 35 18
41 36 1
41 37 5
41 38 20
41 39 5
41 40 8
42 0 11
42 1 13
42 2 13
42 3 6
42 4 7
42 5 7
42 6 17
42 7 19
42 8 20
42 9 7
42 10 7
42 11 16
42 12 8
42 13 13
42 14 9
42 15 1
42 16 1
42 17 6
42 18 10
42 19 11
42 20 18
42 21 9
42 22 19
42 23 11
42 24 1
42 25 15
42 26 2
42 27 8
42 28 5
42 29 9
42 30 2
42 31 14
42 32 15
42 33 13
42 34 10
42 35 4
42 36 16
42 37 1
42 38 4
42 39 17
42 40 11
42 41 5
43 0 8
43 1 15
43 2 19
43 3 11
43 4 15
43 5 18
43 6 17
43 7 19
43 8 7
43 9 7
43 10 9
43 11 10
43 12 7
43 13 3
43 14 13
43 15 1
43 16 1
43 17 1
43 18 15
43 19 18
43 20 12
43 21 18
43 22 20
43 23 3
43 24 15
43 25 4
43 26 6
43 27 7
43 28 13
43 29 1
43 30 17
43 31 20
43 32 15
43 33 18
43 34 17
43 35 8
43 36 7
43 37 14
43 38 2
43 39 20
43 40 8
43 41 14
43 42 4
44 0 1
44 1 16
44 2 1
44 3 9
44 4 12
44 5 7
44 6 7
44 7 11
44 8 19
44 9 11
44 10 15
44 11 17
44 12 19
44 13 18
44 14 8
44 15 20
44 16 16
44 17 6
44 18 12
44 19 15
44 20 3
44 21 14
44 22 7
44 23 11
44 24 5
44 25 19
44 26 10
44 27 10
44 28 16
44 29 1
44 30 6
44 31 13
44 32 16
44 33 8
44 34 13
44 35 6
44 36 4
44 37 12
44 38 6
44 39 14
44 40 13
44 41 12
44 42 7
44 43 12
45 0 17
45 1 10
45 2 4
45 3 9
45 4 10
45 5 11
45 6 18
45 7 8
45 8 9
45 9 14
45 10 20
45 11 11
45 12 16
45 13 5
45 14 18
45 15 4
45 16 6
45 17 10
45 18 3
45 19 7
45 20 11
45 21 15
45 22 17
45 23 1
45 24 10
45 25 8
45 26 16
45 27 12
45 28 7
45 29 5
45 30 6
45 31 5
45 32 19
45 33 1
45 34 6
45 35 17
45 36 10
45 37 20
45 38 18
45 39 13
45 40 8
45 41 20
45 42 17
45 43 15
45 44 7
46 0 11
46 1 3
46 2 6
46 3 16
46 4 20
46 5 18
46 6 15
46 7 19
46 8 14
46 9 9
46 10 10
46 11 16
46 12 3
46 13 20
46 14 14
46 15 18
46 16 15
46 17 6
46 18 9
46 19 6
46 20 17
46 21 10
46 22 11
46 23 4
46 24 12
46 25 16
46 26 9
46 27 17
46 28 12
46 29 9
46 30 18
46 31 10
46 32 18
46 33 19
46 34 5
46 35 17
46 36 9
46 37 10
46 38 20
46 39 12
46 40 2
46 41 12
46 42 6
46 43 3
46 44 1
46 45 19
47 0 11
47 1 1
47 2 19
47 3 7
47 4 8
47 5 2
47 6 20
47 7 17
47 8 8
47 9 16
47 10 8
47 11 5
47 12 4
47 13 1
47 14 8
47 15 5
47 16 1
47 17 10
47 18 19
47 19 7
47 20 4
47 21 2
47 22 10
47 23 6
47 24 2
47 25 12
47 26 2
47 27 2
47 28 14
47 29 19
47 30 1
47 31 14
47 32 11
47 33 16
47 34 5
47 35 8
47 36 14
47 37 5
47 38 5
47 39 5
47 40 5
47 41 13
47 42 6
47 43 18
47 44 8
47 45 5
47 46 16
48 0 3
48 1 16
48 2 12
48 3 18
48 4 13
48 5 9
48 6 11
48 7 10
48 8 13
48 9 13
48 10 19
48 11 12
48 12 18
48 13 12
48 14 5
48 15 11
48 16 19
48 17 2
48 18 20
48 19 10
48 20 12
48 21 6
48 22 11
48 23 16
48 24 13
48 25 2
48 26 15
48 27 7
48 28 14
48 29 11
48 30 5
48 31 15
48 32 13
48 33 18
48 34 11
48 35 3
48 36 10
48 37 18
48 38 17
48 39 3
48 40 7
48 41 15
48 42 18
48 43 9
48 44 11
48 45 10
48 46 4
48 47 10
49 0 7
49 1 5
49 2 12
49 3 17
49 4 12
49 5 9
49 6 8
49 7 9
49 8 12
49 9 19
49 10 1
49 11 5
49 12 4
49 13 6
49 14 8
49 15 14
49 16 13
49 17 10
49 18 17
49 19 13
49 20 6
49 21 4
49 22 17
49 23 13
49 24 18
49 25 20
49 26 10
49 27 8
49 28 10
49 29 4
49 30 9
49 31 6
49 32 17
49 33 15
49 34 2
49 35 15
49 36 7
49 37 11
49 38 20
49 39 7
49 40 13
49 41 13
49 42 18
49 43 10
49 44 7
49 45 20
49 46 9
49 47 7
49 48 8
50 0 15
50 1 7
50 2 7
50 3 16
50 4 15
50 5 18
50 6 10
50 7 18
50 8 5
50 9 15
50 10 13
50 11 9
50 12 20
50 13 11
50 14 11
50 15 5
50 16 19
50 17 19
50 18 18
50 19 20
50 20 20
50 21 15
50 22 16
50 23 14
50 24 18
50 25 9
50 26 5
50 27 9
50 28 18
50 29 13
50 30 14
50 31 4
50 32 18
50 33 9
50 34 10
50 35 9
50 36 6
50 37 7
50 38 10
50 39 12
50 40 16
50 41 6
50 42 4
50 43 1
50 44 6
50 45 8
50 46 2
50 47 10
50 48 13
50 49 20
51 0 17
51 1 14
51 2 4
51 3 15
51 4 9
51 5 8
51 6 2
51 7 2
51 8 5
51 9 18
51 10 18
51 11 7
51 12 1
51 13 15
51 14 1
51 15 15
51 16 4
51 17 13
51 18 2
51 19 19
51 20 10
51 21 5
51 22 17
51 23 13
51 24 10
51 25 19
51 26 14
51 27 11
51 28 19
51 29 3
51 30 2
51 31 16
51 32 8
51 33 16
51 34 9
51 35 3
51 36 19
51 37 14
51 38 4
51 39 17
51 40 10
51 41 5
51 42 11
51 43 4
51 44 9
51 45 11
51 46 3
51 47 3
51 48 12
51 49 6
51 50 14
52 0 3
52 1 9
52 2 9
52 3 18
52 4 13
52 5 6
52 6 10
52 7 18
52 8 15
52 9 20
52 10 14
52 11 15
52 12 2
52 13 20
52 14 8
52 15 16
52 16 14
52 17 19
52 18 20
52 19 16
52 20 14
52 21 13
52 22 2
52 23 17
52 24 17
52 25 5
52 26 6
52 27 20
52 28 12
52 29 13
52 30 4
52 31 17
52 32 12
52 33 3
52 34 13
52 35 5
52 36 17
52 37 16
52 38 17
52 39 10
52 40 4
52 41 5
52 42 2
52 43 6
52 44 5
52 45 20
52 46 11
52 47 1
52 48 16
52 49 20
52 50 16
52 51 17
53 0 3
53 1 7
53 2 1
53 3 6
53 4 19
53 5 10
53 6 5
53 7 20
53 8 5
53 9 1
53 10 7
53 11 12
53 12 12
53 13 8
53 14 9
53 15 4
53 16 18
53 17 6
53 18 13
53 19 20
53 20 1
53 21 8
53 22 1
53 23 12
53 24 13
53 25 8
53 26 18
53 27 10
53 28 7
53 29 10
53 30 19
53 31 12
53 32 8
53 33 11
53 34 5
53 35 12
53 36 1
53 37 20
53 38 14
53 39 1
53 40 19
53 41 2
53 42 12
53 43 17
53 44 7
53 45 14
53 46 1
53 47 16
53 48 3
53 49 7
53 50 7
53 51 13
53 52 18
54 0 18
54 1 10
54 2 8
54 3 18
54 4 17
54 5 18
54 6 20
54 7 16
54 8 10
54 9 3
54 10 11
54 11 2
54 12 6
54 13 20
54 14 15
54 15 10
54 16 8
54 17 7
54 18 12
54 19 12
54 20 14
54 21 13
54 22 11
54 23 9
54 24 3
54 25 15
54 26 15
54 27 13
54 28 9
54 29 11
54 30 8
54 31 18
54 32 19
54 33 2
54 34 10
54 35 12
54 36 10
54 37 7
54 38 17
54 39 17
54 40 14
54 41 6
54 42 8
54 43 7
54 44 12
54 45 16
54 46 19
54 47 6
54 48 16
54 49 15
54 50 8
54 51 13
54 52 4
54 53 19
55 0 11
55 1 8
55 2 9
55 3 4
55 4 8
55 5 2
55 6 20
55 7 8
55 8 16
55 9 12
55 10 2
55 11 6
55 12 9
55 13 9
55 14 18
55 15 14
55 16 13
55 17 10
55 18 8
55 19 19
55 20 18
55 21 9
55 22 5
55 23 3
55 24 5
55 25 3
55 26 18
55 27 12
55 28 11
55 29 10
55 30 7
55 31 12
55 32 8
55 33 16
55 34 18
55 35 17
55 36 12
55 37 13
55 38 7
55 39 3
55 40 18
55 41 17
55 42 12
55 43 5
55 44 10
55 45 15
55 46 17
55 47 11
55 48 2
55 49 17
55 50 3
55 51 13
55 52 14
55 53 2
55 54 20
56 0 13
56 1 18
56 2 3
56 3 15
56 4 6
56 5 6
56 6 16
56 7 2
56 8 5
56 9 7
56 10 18
56 11 1
56 12 10
56 13 12
56 14 17
56 15 10
56 16 9
56 17 2
56 18 14
56 19 17
56 20 14
56 21 13
56 22 19
56 23 10
56 24 20
56 25 4
56 26 4
56 27 1
56 28 7
56 29 7
56 30 17
56 31 5
56 32 9
56 33 15
56 34 20
56 35 14
56 36 5
56 37 19
56 38 19
56 39 12
56 40 2
56 41 4
56 42 1
56 43 16
56 44 9
56 45 20
56 46 15
56 47 4
56 48 13
56 49 2
56 50 8
56 51 14
56 52 16
56 53 6
56 54 14
56 55 20
57 0 2
57 1 17
57 2 13
57 3 6
57 4 20
57 5 4
57 6 12
57 7 19
57 8 17
57 9 12
57 10 9
57 11 9
57 12 8
57 13 18
57 14 9
57 15 3
57 16 11
57 17 5
57 18 18
57 19 4
57 20 4
57 21 10
57 22 6
57 23 13
57 24 9
57 25 19
57 26 2
57 27 19
57 28 5
57 29 9
57 30 14
57 31 14
57 32 2
57 33 20
57 34 8
57 35 7
57 36 12
57 37 4
57 38 17
57 39 12
57 40 11
57 41 16
57 42 16
57 43 13
57 44 8
57 45 7
57 46 7
57 47 20
57 48 9
57 49 5
57 50 20
57 51 10
57 52 11
57 53 2
57 54 19
57 55 12
57 56 2
58 0 12
58 1 1
58 2 15
58 3 18
58 4 7
58 5 16
58 6 16
58 7 2
58 8 6
58 9 4
58 10 12
58 11 19
58 12 19
58 13 4
58 14 3
58 15 19
58 16 7
58 17 3
58 18 2
58 19 4
58 20 7
58 21 13
58 22 5
58 23 14
58 24 3
58 25 3
58 26 17
58 27 5
58 28 14
58 29 18
58 30 4
58 31 20
58 32 4
58 33 3
58 34 20
58 35 19
58 36 11
58 37 8
58 38 6
58 39 6
58 40 7
58 41 14
58 42 10
58 43 16
58 44 10
58 45 16
58 46 17
58 47 18
58 48 13
58 49 20
58 50 10
58 51 11
58 52 13
58 53 13
58 54 18
58 55 9
58 56 3
58 57 15
59 0 8
59 1 6
59 2 5
59 3 11
59 4 15
59 5 17
59 6 15
59 7 5
59 8 13
59 9 12
59 10 15
59 11 3
59 12 1
59 13 10
59 14 3
59 15 19
59 16 6
59 17 11
59 18 7
59 19 14
59 20 4
59 21 14
59 22 12
59 23 10
59 24 8
59 25 2
59 26 14
59 27 10
59 28 11
59 29 12
59 30 13
59 31 7
59 32 1
59 33 8
59 34 10
59 35 17
59 36 18
59 37 6
59 38 2
59 39 13
59 40 8
59 41 3
59 42 16
59 43 19
59 44 10
59 45 8
59 46 11
59 47 15
59 48 3
59 49 5
59 50 4
59 51 3
59 52 16
59 53 17
59 54 5
59 55 18
59 56 3
59 57 20
59 58 8
60 0 8
60 1 10
60 2 5
60 3 17
60 4 17
60 5 10
60 6 6
60 7 19
60 8 17
60 9 5
60 10 3
60 11 18
60 12 9
60 13 12
60 14 16
60 15 8
60 16 14
60 17 14
60 18 19
60 19 13
60 20 20
60 21 14
60 22 8
60 23 1
60 24 6
60 25 7
60 26 4
60 27 18
60 28 20
60 29 14
60 30 8
60 31 2
60 32 4
60 33 11
60 34 1
60 35 2
60 36 1
60 37 2
60 38 3
60 39 15
60 40 20
60 41 10
60 42 19
60 43 7
60 44 19
60 45 7
60 46 13
60 47 5
60 48 11
60 49 4
60 50 1
60 51 1
60 52 6
60 53 8
60 54 2
60 55 1
60 56 4
60 57 9
60 58 11
60 59 1
61 0 8
61 1 12
61 2 12
61 3 10
61 4 13
61 5 19
61 6 12
61 7 9
61 8 1
61 9 13
61 10 3
61 11 13
61 12 9
61 13 4
61 14 7
61 15 6
61 16 1
61 17 2
61 18 8
61 19 16
61 20 4
61 21 18
61 22 14
61 23 11
61 24 2
61 25 1
61 26 11
61 27 5
61 28 11
61 29 12
61 30 18
61 31 20
61 32 5
61 33 16
61 34 14
61 35 10
61 36 19
61 37 4
61 38 16
61 39 14
61 40 12
61 41 9
61 42 14
61 43 16
61 44 15
61 45 15
61 46 7
61 47 19
61 48 15
61 49 17
61 50 11
61 51 4
61 52 12
61 53 20
61 54 8
61 55 4
61 56 6
61 57 16
61 58 10
61 59 13
61 60 20
62 0 1
62 1 19
62 2 4
62 3 5
62 4 15
62 5 17
62 6 5
62 7 19
62 8 3
62 9 10
62 10 7
62 11 12
62 12 3
62 13 18
62 14 18
62 15 19
62 16 5
62 17 18
62 18 1
62 19 9
62 20 18
62 21 19
62 22 4
62 23 2
62 24 17
62 25 15
62 26 2
62 27 10
62 28 7
62 29 12
62 30 4
62 31 11
62 32 15
62 33 10
62 34 16
62 35 5
62 36 2
62 37 15
62 38 18
62 39 18
62 40 14
62 41 11
62 42 8
62 43 6
62 44 14
62 45 1
62 46 15
62 47 6
62 48 8
62 49 5
62 50 8
62 51 7
62 52 15
62 53 5
62 54 3
62 55 19
62 56 19
62 57 13
62 58 8
62 59 12
62 60 7
62 61 16
63 0 10
63 1 16
63 2 3
63 3 16
63 4 13
63 5 15
63 6 15
63 7 18
63 8 11
63 9 10
63 10 18
63 11 10
63 12 6
63 13 19
63 14 3
63 15 17
63 16 9
63 17 6
63 18 9
63 19 7
63 20 3
63 21 19
63 22 2
63 23 3
63 24 13
63 25 14
63 26 16
63 27 15
63 28 2
63 29 2
63 30 14
63 31 13
63 32 15
63 33 13
63 34 5
63 35 1
63 36 5
63 37 2
63 38 11
63 39 5
63 40 4
63 41 8
63 42 14
63 43 18
63 44 18
63 45 2
63 46 13
63 47 19
63 48 3
63 49 9
63 50 2
63 51 3
63 52 9
63 53 8
63 54 13
63 55 16
63 56 15
63 57 13
63 58 17
63 59 2
63 60 1
63 61 7
63 62 6
64 0 2
64 1 15
64 2 10
64 3 9
64 4 14
64 5 15
64 6 1
64 7 12
64 8 9
64 9 12
64 10 17
64 11 19
64 12 12
64 13 4
64 14 20
64 15 7
64 16 8
64 17 1
64 18 9
64 19 7
64 20 4
64 21 10
64 22 19
64 23 1
64 24 7
64 25 15
64 26 2
64 27 5
64 28 2
64 29 16
64 30 7
64 31 1
64 32 6
64 33 16
64 34 14
64 35 8
64 36 18
64 37 12
64 38 2
64 39 13
64 40 5
64 41 6
64 42 15
64 43 5
64 44 8
64 45 12
64 46 20
64 47 6
64 48 19
64 49 3
64 50 13
64 51 11
64 52 19
64 53 8
64 54 4
64 55 19
64 56 6
64 57 20
64 58 20
64 59 1
64 60 8
64 61 12
64 62 15
64 63 11
65 0 13
65 1 11
65 2 1
65 3 19
65 4 1
65 5 13
65 6 20
65 7 10
65 8 19
65 9 5
65 10 5
65 11 17
65 12 5
65 13 7
65 14 20
65 15 6
65 16 8
65 17 9
65 18 12
65 19 2
65 20 3
65 21 20
65 22 14
65 23 11
65 24 18
65 25 19
65 26 3
65 27 15
65 28 17
65 29 3
65 30 8
65 31 5
65 32 13
65 33 18
65 34 20
65 35 2
65 36 16
65 37 1
65 38 18
65 39 9
65 40 16
65 41 20
65 42 5
65 43 13
65 44 13
65 45 16
65 46 15
65 47 16
65 48 4
65 49 11
65 50 2
65 51 10
65 52 5
65 53 17
65 54 6
65 55 17
65 56 10
65 57 19
65 58 14
65 59 10
65 60 7
65 61 11
65 62 19
65 63 6
65 64 14
66 0 17
66 1 5
66 2 17
66 3 1
66 4 2
66 5 3
66 6 12
66 7 7
66 8 12
66 9 9
66 10 19
66 11 5
66 12 4
66 13 9
66 14 20
66 15 16
66 16 13
66 17 1
66 18 4
66 19 18
66 20 4
66 21 10
66 22 9
66 23 1
66 24 5
66 25 10
66 26 18
66 27 16
66 28 8
66 29 19
66 30 5
66 31 5
66 32 13
66 33 3
66 34 3
66 35 15
66 36 3
66 37 6
66 38 11
66 39 1
66 40 4
66 41 5
66 42 12
66 43 1
66 44 10
66 45 20
66 46 10
66 47 17
66 48 12
66 49 10
66 50 12
66 51 3
66 52 16
66 53 18
66 54 8
66 55 8
66 56 18
66 57 11
66 58 18
66 59 17
66 60 8
66 61 8
66 62 4
66 63 9
66 64 8
66 65 18
67 0 13
67 1 15
67 2 11
67 3 16
67 4 4
67 5 8
67 6 6
67 7 14
67 8 12
67 9 19
67 10 10
67 11 7
67 12 7
67 13 17
67 14 13
67 15 7
67 16 15
67 17 3
67 18 17
67 19 13
67 20 3
67 21 16
67 22 11
67 23 11
67 24 11
67 25 6
67 26 9
67 27 4
67 28 13
67 29 6
67 30 3
67 31 4
67 32 18
67 33 20
67 34 9
67 35 6
67 36 1
67 37 8
67 38 11
67 39 4
67 40 5
67 41 20
67 42 10
67 43 4
67 44 18
67 45 11
67 46 6
67 47 8
67 48 10
67 49 7
67 50 15
67 51 13
67 52 8
67 53 7
67 54 9
67 55 18
67 56 6
67 57 4
67 58 12
67 59 11
67 60 7
67 61 4
67 62 16
67 63 12
67 64 20
67 65 1
67 66 19
68 0 20
68 1 12
68 2 5
68 3 11
68 4 16
68 5 18
68 6 1
68 7 7
68 8 19
68 9 15
68 10 2
68 11 9
68 12 2
68 13 5
68 14 17
68 15 6
68 16 6
68 17 4
68 18 4
68 19 7
68 20 10
68 21 11
68 22 11
68 23 14
68 24 3
68 25 4
68 26 6
68 27 17
68 28 14
68 29 13
68 30 6
68 31 15
68 32 3
68 33 14
68 34 6
68 35 17
68 36 11
68 37 20
68 38 18
68 39 7
68 40 13
68 41 13
68 42 17
68 43 2
68 44 16
68 45 18
68 46 1
68 47 8
68 48 11
68 49 10
68 50 4
68 51 6
68 52 2
68 53 13
68 54 13
68 55 14
68 56 18
68 57 5
68 58 2
68 59 9
68 60 18
68 61 18
68 62 11
68 63 2
68 64 9
68 65 3
68 66 18
68 67 17
69 0 1
69 1 18
69 2 16
69 3 1
69 4 17
69 5 7
69 6 7
69 7 7
69 8 4
69 9 15
69 10 17
69 11 20
69 12 13
69 13 10
69 14 1
69 15 16
69 16 9
69 17 18
69 18 8
69 19 2
69 20 4
69 21 10
69 22 10
69 23 7
69 24 10
69 25 5
69 26 10
69 27 17
69 28 7
69 29 15
69 30 7
69 31 15
69 32 15
69 33 14
69 34 19
69 35 7
69 36 10
69 37 13
69 38 1
69 39 3
69 40 12
69 41 9
69 42 2
69 43 1
69 44 5
69 45 3
69 46 1
69 47 8
69 48 19
69 49 7
69 50 16
69 51 5
69 52 4
69 53 17
69 54 9
69 55 13
69 56 6
69 57 9
69 58 16
69 59 5
69 60 12
69 61 4
69 62 16
69 63 6
69 64 8
69 65 8
69 66 16
69 67 3
69 68 20
